proyfinal/src/viki/013/experimentInOfficeAgust.take6.output/e7f9d24a-f22c-46ba-b81a-3b21f7908fe0.als.dat
{'cnf.clauses': '118081',
 'cnf.totvars': '69608',
 'conflict literals': '36',
 'conflicts': '18',
 'decisions': '4919',
 'memused.mb': '16.69',
 'outcome': 'UNSAT',
 'propagations': '27946',
 'restarts': '1',
 'solver.msecs': 35,
 'task.msecs': 81}
