proyfinal/src/viki/013/experimentInOfficeAgust.take6.output/e7f9d24a-f22c-46ba-b81a-3b21f7908fe0.als.out
Reading from standard input... Use '--help' for help.
============================[ Problem Statistics ]=============================
|                                                                             |
|  Number of variables:         69608                                         |
|  Number of clauses:          118081                                         |
|  Parse time:                   0.03 s                                       |
|                                                                             |
============================[ Search Statistics ]==============================
| Conflicts |          ORIGINAL         |          LEARNT          | Progress |
|           |    Vars  Clauses Literals |    Limit  Clauses Lit/Cl |          |
===============================================================================
===============================================================================
restarts              : 1
conflicts             : 18             (512 /sec)
decisions             : 4919           (0.00 % random) (139987 /sec)
propagations          : 27946          (795299 /sec)
conflict literals     : 36             (0.00 % deleted)
Memory used           : 16.69 MB
CPU time              : 0.035139 s

UNSATISFIABLE
